benchmarks/bfuzz0/27234240992007455961222314698321013829.smt2
(set-logic QF_FP)
(declare-const x0 (_ FloatingPoint 8 24))
(declare-const x1 (_ FloatingPoint 8 24))
(declare-const x2 (_ FloatingPoint 8 24))
(declare-const x3 (_ FloatingPoint 8 24))
(declare-const x4 (_ FloatingPoint 8 24))
(declare-const x5 (_ FloatingPoint 8 24))
(declare-const x6 (_ FloatingPoint 8 24))
(declare-const x7 (_ FloatingPoint 8 24))
(declare-const x8 (_ FloatingPoint 8 24))
(declare-const x9 (_ FloatingPoint 8 24))
(declare-const x10 (_ FloatingPoint 8 24))
(declare-const x11 (_ FloatingPoint 8 24))
(declare-const x12 (_ FloatingPoint 8 24))
(declare-const x13 (_ FloatingPoint 8 24))
(declare-const x14 (_ FloatingPoint 8 24))
(declare-const x15 (_ FloatingPoint 8 24))
(declare-const x16 (_ FloatingPoint 8 24))
(declare-const x17 (_ FloatingPoint 8 24))
(assert (fp.gt (fp.div RNE x6 x12) (fp.neg x5)))
(assert (fp.geq (fp.neg x17) (fp.add RNE x12 x10)))
(assert (fp.lt (fp.add RNE x1 x15) (fp.add RNE x13 x4)))
(assert (fp.leq (fp.mul RNE x17 x2) (fp.add RNE x1 x4)))
(assert (fp.eq (fp.sub RNE x17 x17) (fp.sub RNE x12 x9)))
(assert (fp.gt (fp.sub RNE x16 x6) (fp.neg x13)))
(assert (fp.leq (fp.sub RNE x5 x14) (fp.add RNE x7 x10)))
(assert (fp.gt (fp.neg x2) (fp.add RNE x3 x15)))
(assert (fp.lt (fp.neg x3) (fp.mul RNE x9 x14)))
(assert (fp.eq (fp.add RNE x11 x3) (fp.mul RNE x8 x14)))
(assert (fp.leq (fp.neg x13) (fp.mul RNE x12 x8)))
(check-sat)
