db/data/27234240992007455961222314698321013829.z3.out
sat
-------------------
5.366110723
